param n := 120;
param c := 1500
param : V : p w :=
   0	  71	  61
   1	 106	  96
   2	 101	  91
   3	  47	  37
   4	  63	  53
   5	  86	  76
   6	  60	  50
   7	  76	  66
   8	  80	  70
   9	  97	  87
  10	 102	  92
  11	  45	  35
  12	  63	  53
  13	 105	  95
  14	  57	  47
  15	  66	  56
  16	  65	  55
  17	  96	  86
  18	  42	  32
  19	 109	  99
  20	  93	  83
  21	  98	  88
  22	  51	  41
  23	  73	  63
  24	  87	  77
  25	  70	  60
  26	  76	  66
  27	  63	  53
  28	  89	  79
  29	  91	  81
  30	 106	  96
  31	  44	  34
  32	 109	  99
  33	  57	  47
  34	  84	  74
  35	  97	  87
  36	  54	  44
  37	  87	  77
  38	  62	  52
  39	 109	  99
  40	  79	  69
  41	  74	  64
  42	 104	  94
  43	  48	  38
  44	  79	  69
  45	  71	  61
  46	 108	  98
  47	  50	  40
  48	  94	  84
  49	  99	  89
  50	  59	  49
  51	  74	  64
  52	  63	  53
  53	  51	  41
  54	  44	  34
  55	  95	  85
  56	  45	  35
  57	  65	  55
  58	  71	  61
  59	  78	  68
  60	 110	 100
  61	  85	  75
  62	 108	  98
  63	  46	  36
  64	  54	  44
  65	  67	  57
  66	  34	  24
  67	  70	  60
  68	  55	  45
  69	  58	  48
  70	  70	  60
  71	 104	  94
  72	  81	  71
  73	  80	  70
  74	  74	  64
  75	  72	  62
  76	 103	  93
  77	  30	  20
  78	  79	  69
  79	  47	  37
  80	  73	  63
  81	  71	  61
  82	  36	  26
  83	  64	  54
  84	  99	  89
  85	  56	  46
  86	  64	  54
  87	  60	  50
  88	  42	  32
  89	  81	  71
  90	  72	  62
  91	  50	  40
  92	  36	  26
  93	  69	  59
  94	  72	  62
  95	  37	  27
  96	  70	  60
  97	  60	  50
  98	  84	  74
  99	  44	  34
 100	  50	  40
 101	  80	  70
 102	  66	  56
 103	  33	  23
 104	  76	  66
 105	  67	  57
 106	  53	  43
 107	  55	  45
 108	  75	  65
 109	  35	  25
 110	  92	  82
 111	  92	  82
 112	  47	  37
 113	  76	  66
 114	  57	  47
 115	  54	  44
 116	 104	  94
 117	  33	  23
 118	  34	  24
 119	  61	  51
;

set E :=
   0	   2
   0	   3
   0	   4
   0	  14
   0	  18
   0	  19
   0	  21
   0	  24
   0	  27
   0	  28
   0	  36
   0	  40
   0	  41
   0	  43
   0	  46
   0	  49
   0	  52
   0	  53
   0	  55
   0	  60
   0	  62
   0	  65
   0	  69
   0	  72
   0	  76
   0	  80
   0	  84
   0	  87
   0	  88
   0	  92
   0	  93
   0	  94
   0	  96
   0	  97
   0	 100
   0	 104
   0	 108
   0	 109
   0	 110
   0	 112
   0	 113
   0	 115
   0	 117
   0	 118
   0	 119
   1	   3
   1	   4
   1	   9
   1	  13
   1	  19
   1	  20
   1	  23
   1	  26
   1	  27
   1	  28
   1	  29
   1	  30
   1	  31
   1	  33
   1	  36
   1	  40
   1	  41
   1	  42
   1	  46
   1	  49
   1	  51
   1	  53
   1	  56
   1	  57
   1	  58
   1	  61
   1	  63
   1	  65
   1	  66
   1	  68
   1	  70
   1	  77
   1	  78
   1	  81
   1	  83
   1	  84
   1	  87
   1	  89
   1	  90
   1	  91
   1	  93
   1	  94
   1	  97
   1	  98
   1	  99
   1	 102
   1	 103
   1	 107
   1	 108
   1	 109
   1	 113
   1	 114
   1	 115
   1	 116
   1	 119
   2	   3
   2	   5
   2	   9
   2	  11
   2	  17
   2	  18
   2	  19
   2	  21
   2	  24
   2	  25
   2	  26
   2	  28
   2	  29
   2	  36
   2	  37
   2	  39
   2	  40
   2	  41
   2	  44
   2	  49
   2	  50
   2	  52
   2	  53
   2	  54
   2	  57
   2	  60
   2	  63
   2	  65
   2	  66
   2	  68
   2	  72
   2	  73
   2	  74
   2	  75
   2	  80
   2	  83
   2	  84
   2	  85
   2	  86
   2	  87
   2	  92
   2	  96
   2	 100
   2	 104
   2	 105
   2	 109
   2	 110
   2	 111
   2	 114
   2	 117
   2	 119
   3	   4
   3	  10
   3	  11
   3	  13
   3	  17
   3	  18
   3	  20
   3	  25
   3	  26
   3	  28
   3	  29
   3	  30
   3	  32
   3	  33
   3	  35
   3	  37
   3	  38
   3	  42
   3	  44
   3	  46
   3	  49
   3	  51
   3	  55
   3	  60
   3	  64
   3	  71
   3	  74
   3	  75
   3	  80
   3	  82
   3	  85
   3	  89
   3	  91
   3	  93
   3	  96
   3	  97
   3	  99
   3	 100
   3	 102
   3	 103
   3	 111
   3	 113
   3	 115
   3	 116
   3	 117
   3	 118
   4	   5
   4	   9
   4	  14
   4	  18
   4	  23
   4	  27
   4	  33
   4	  35
   4	  37
   4	  38
   4	  39
   4	  41
   4	  42
   4	  44
   4	  45
   4	  47
   4	  48
   4	  49
   4	  50
   4	  51
   4	  53
   4	  56
   4	  58
   4	  59
   4	  61
   4	  65
   4	  67
   4	  68
   4	  69
   4	  70
   4	  75
   4	  77
   4	  79
   4	  81
   4	  84
   4	  86
   4	  90
   4	  93
   4	  94
   4	  95
   4	  96
   4	  98
   4	 102
   4	 103
   4	 107
   4	 109
   4	 112
   4	 113
   4	 114
   4	 115
   5	   6
   5	   9
   5	  15
   5	  16
   5	  18
   5	  21
   5	  24
   5	  29
   5	  30
   5	  31
   5	  32
   5	  33
   5	  35
   5	  36
   5	  37
   5	  42
   5	  48
   5	  49
   5	  50
   5	  52
   5	  54
   5	  55
   5	  61
   5	  67
   5	  70
   5	  72
   5	  73
   5	  78
   5	  83
   5	  84
   5	  87
   5	  88
   5	  89
   5	  92
   5	  96
   5	  98
   5	 100
   5	 103
   5	 104
   5	 109
   5	 110
   5	 115
   5	 116
   5	 117
   6	   8
   6	   9
   6	  13
   6	  15
   6	  19
   6	  20
   6	  22
   6	  23
   6	  24
   6	  27
   6	  28
   6	  32
   6	  38
   6	  41
   6	  42
   6	  48
   6	  49
   6	  60
   6	  61
   6	  62
   6	  65
   6	  72
   6	  73
   6	  74
   6	  81
   6	  87
   6	  89
   6	  93
   6	  94
   6	  97
   6	  99
   6	 100
   6	 102
   6	 103
   6	 106
   6	 110
   6	 113
   6	 117
   7	   8
   7	  14
   7	  17
   7	  18
   7	  20
   7	  22
   7	  23
   7	  25
   7	  27
   7	  28
   7	  29
   7	  30
   7	  34
   7	  35
   7	  38
   7	  39
   7	  40
   7	  47
   7	  52
   7	  54
   7	  57
   7	  65
   7	  66
   7	  69
   7	  71
   7	  73
   7	  74
   7	  76
   7	  82
   7	  84
   7	  87
   7	  88
   7	  95
   7	  97
   7	  99
   7	 100
   7	 110
   7	 111
   7	 113
   7	 114
   7	 115
   8	   9
   8	  10
   8	  11
   8	  15
   8	  17
   8	  18
   8	  22
   8	  23
   8	  26
   8	  31
   8	  32
   8	  33
   8	  34
   8	  36
   8	  39
   8	  40
   8	  41
   8	  49
   8	  53
   8	  55
   8	  58
   8	  60
   8	  61
   8	  62
   8	  63
   8	  68
   8	  71
   8	  78
   8	  80
   8	  84
   8	  86
   8	  90
   8	  91
   8	  93
   8	  94
   8	  95
   8	 101
   8	 102
   8	 103
   8	 106
   8	 107
   8	 110
   8	 111
   8	 115
   8	 116
   9	  10
   9	  13
   9	  14
   9	  15
   9	  19
   9	  23
   9	  24
   9	  25
   9	  28
   9	  31
   9	  32
   9	  42
   9	  46
   9	  47
   9	  48
   9	  54
   9	  55
   9	  57
   9	  59
   9	  60
   9	  61
   9	  62
   9	  63
   9	  64
   9	  67
   9	  68
   9	  69
   9	  73
   9	  79
   9	  82
   9	  83
   9	  86
   9	  89
   9	  90
   9	  91
   9	  95
   9	  96
   9	 100
   9	 101
   9	 102
   9	 106
   9	 110
   9	 113
   9	 114
   9	 118
   9	 119
  10	  12
  10	  13
  10	  20
  10	  24
  10	  28
  10	  29
  10	  31
  10	  33
  10	  37
  10	  38
  10	  40
  10	  42
  10	  44
  10	  48
  10	  49
  10	  53
  10	  54
  10	  55
  10	  56
  10	  57
  10	  58
  10	  67
  10	  68
  10	  70
  10	  73
  10	  77
  10	  78
  10	  79
  10	  82
  10	  86
  10	  88
  10	  99
  10	 102
  10	 103
  10	 104
  10	 109
  10	 111
  10	 115
  10	 116
  11	  16
  11	  20
  11	  21
  11	  22
  11	  23
  11	  24
  11	  25
  11	  27
  11	  29
  11	  33
  11	  39
  11	  43
  11	  45
  11	  48
  11	  50
  11	  51
  11	  52
  11	  53
  11	  54
  11	  55
  11	  56
  11	  57
  11	  58
  11	  62
  11	  63
  11	  64
  11	  66
  11	  73
  11	  77
  11	  85
  11	  88
  11	  89
  11	  92
  11	  93
  11	  98
  11	 100
  11	 101
  11	 106
  11	 108
  11	 109
  11	 110
  11	 118
  12	  14
  12	  25
  12	  27
  12	  30
  12	  31
  12	  32
  12	  42
  12	  43
  12	  45
  12	  55
  12	  57
  12	  58
  12	  62
  12	  65
  12	  72
  12	  73
  12	  77
  12	  78
  12	  79
  12	  80
  12	  83
  12	  84
  12	  86
  12	  88
  12	  91
  12	  95
  12	  96
  12	  97
  12	  99
  12	 100
  12	 105
  12	 106
  12	 107
  12	 108
  12	 111
  12	 112
  12	 115
  12	 116
  13	  20
  13	  21
  13	  24
  13	  25
  13	  27
  13	  30
  13	  31
  13	  33
  13	  37
  13	  53
  13	  58
  13	  59
  13	  60
  13	  62
  13	  64
  13	  65
  13	  70
  13	  71
  13	  72
  13	  73
  13	  74
  13	  76
  13	  77
  13	  78
  13	  79
  13	  84
  13	  87
  13	 105
  13	 107
  13	 110
  13	 113
  13	 114
  13	 116
  13	 117
  13	 118
  14	  18
  14	  20
  14	  21
  14	  22
  14	  26
  14	  27
  14	  28
  14	  30
  14	  34
  14	  38
  14	  39
  14	  50
  14	  51
  14	  53
  14	  55
  14	  57
  14	  58
  14	  61
  14	  62
  14	  65
  14	  68
  14	  69
  14	  70
  14	  78
  14	  82
  14	  84
  14	  85
  14	  86
  14	  89
  14	  91
  14	  93
  14	  95
  14	  97
  14	  99
  14	 105
  14	 109
  14	 114
  14	 115
  14	 118
  14	 119
  15	  16
  15	  17
  15	  18
  15	  21
  15	  26
  15	  32
  15	  33
  15	  35
  15	  36
  15	  38
  15	  40
  15	  41
  15	  42
  15	  44
  15	  46
  15	  50
  15	  53
  15	  61
  15	  62
  15	  65
  15	  67
  15	  68
  15	  72
  15	  77
  15	  78
  15	  79
  15	  82
  15	  83
  15	  85
  15	  90
  15	  98
  15	 101
  15	 104
  15	 105
  15	 107
  15	 111
  15	 114
  15	 116
  15	 118
  16	  18
  16	  20
  16	  22
  16	  29
  16	  31
  16	  32
  16	  34
  16	  39
  16	  40
  16	  44
  16	  46
  16	  47
  16	  49
  16	  50
  16	  51
  16	  52
  16	  60
  16	  61
  16	  62
  16	  63
  16	  64
  16	  70
  16	  73
  16	  75
  16	  78
  16	  82
  16	  83
  16	  88
  16	  90
  16	  93
  16	  95
  16	  96
  16	 101
  16	 103
  16	 104
  16	 106
  16	 108
  16	 113
  16	 119
  17	  20
  17	  22
  17	  24
  17	  26
  17	  27
  17	  29
  17	  32
  17	  33
  17	  35
  17	  36
  17	  40
  17	  43
  17	  49
  17	  53
  17	  54
  17	  58
  17	  64
  17	  66
  17	  67
  17	  68
  17	  69
  17	  70
  17	  75
  17	  77
  17	  79
  17	  81
  17	  82
  17	  85
  17	  86
  17	  91
  17	  98
  17	 100
  17	 104
  17	 105
  17	 107
  17	 109
  17	 110
  17	 111
  17	 112
  17	 113
  17	 115
  17	 116
  18	  19
  18	  25
  18	  27
  18	  36
  18	  40
  18	  44
  18	  48
  18	  60
  18	  67
  18	  68
  18	  70
  18	  71
  18	  72
  18	  73
  18	  77
  18	  81
  18	  82
  18	  84
  18	  87
  18	  89
  18	  92
  18	  94
  18	  95
  18	  96
  18	  97
  18	 101
  18	 102
  18	 104
  18	 105
  18	 107
  18	 109
  18	 112
  18	 113
  18	 114
  18	 115
  18	 117
  19	  21
  19	  22
  19	  24
  19	  26
  19	  28
  19	  29
  19	  32
  19	  33
  19	  35
  19	  44
  19	  45
  19	  49
  19	  50
  19	  51
  19	  56
  19	  58
  19	  61
  19	  62
  19	  66
  19	  67
  19	  69
  19	  70
  19	  71
  19	  74
  19	  77
  19	  78
  19	  82
  19	  83
  19	  85
  19	  87
  19	  89
  19	  91
  19	  94
  19	  95
  19	  96
  19	  98
  19	 101
  19	 103
  19	 105
  19	 107
  19	 111
  19	 114
  19	 115
  19	 117
  20	  22
  20	  25
  20	  27
  20	  31
  20	  32
  20	  37
  20	  38
  20	  39
  20	  40
  20	  41
  20	  42
  20	  43
  20	  44
  20	  45
  20	  46
  20	  47
  20	  49
  20	  50
  20	  52
  20	  55
  20	  56
  20	  59
  20	  60
  20	  62
  20	  65
  20	  70
  20	  71
  20	  72
  20	  73
  20	  76
  20	  79
  20	  80
  20	  81
  20	  83
  20	  87
  20	  94
  20	  97
  20	  99
  20	 106
  20	 108
  20	 111
  20	 112
  21	  23
  21	  25
  21	  28
  21	  29
  21	  30
  21	  31
  21	  33
  21	  38
  21	  39
  21	  40
  21	  42
  21	  45
  21	  50
  21	  56
  21	  57
  21	  63
  21	  64
  21	  68
  21	  80
  21	  81
  21	  84
  21	  86
  21	  87
  21	  90
  21	  91
  21	  94
  21	  96
  21	  98
  21	 101
  21	 102
  21	 105
  21	 107
  21	 109
  21	 110
  21	 112
  21	 113
  21	 115
  21	 117
  21	 119
  22	  23
  22	  27
  22	  28
  22	  30
  22	  32
  22	  33
  22	  34
  22	  38
  22	  39
  22	  40
  22	  42
  22	  43
  22	  44
  22	  48
  22	  52
  22	  53
  22	  54
  22	  56
  22	  58
  22	  59
  22	  62
  22	  64
  22	  65
  22	  68
  22	  69
  22	  71
  22	  72
  22	  74
  22	  75
  22	  77
  22	  81
  22	  91
  22	  92
  22	 112
  22	 113
  22	 117
  22	 119
  23	  28
  23	  38
  23	  39
  23	  41
  23	  42
  23	  44
  23	  46
  23	  51
  23	  53
  23	  56
  23	  57
  23	  58
  23	  59
  23	  62
  23	  63
  23	  65
  23	  68
  23	  72
  23	  73
  23	  75
  23	  77
  23	  78
  23	  84
  23	  85
  23	  87
  23	  89
  23	  90
  23	  94
  23	  95
  23	  96
  23	  99
  23	 104
  23	 111
  23	 114
  23	 115
  23	 116
  23	 117
  23	 119
  24	  29
  24	  31
  24	  32
  24	  33
  24	  38
  24	  40
  24	  43
  24	  46
  24	  47
  24	  49
  24	  50
  24	  51
  24	  52
  24	  53
  24	  54
  24	  55
  24	  57
  24	  59
  24	  61
  24	  65
  24	  66
  24	  71
  24	  73
  24	  75
  24	  76
  24	  78
  24	  79
  24	  81
  24	  83
  24	  86
  24	  88
  24	  90
  24	  91
  24	  92
  24	  93
  24	  95
  24	  97
  24	 100
  24	 103
  24	 105
  24	 106
  24	 108
  24	 109
  24	 110
  24	 112
  24	 113
  24	 116
  24	 118
  25	  26
  25	  28
  25	  32
  25	  34
  25	  41
  25	  42
  25	  43
  25	  45
  25	  50
  25	  53
  25	  54
  25	  57
  25	  58
  25	  60
  25	  61
  25	  63
  25	  65
  25	  68
  25	  69
  25	  71
  25	  78
  25	  80
  25	  82
  25	  83
  25	  89
  25	  90
  25	  95
  25	  97
  25	  99
  25	 102
  25	 103
  25	 104
  25	 114
  25	 117
  26	  27
  26	  29
  26	  30
  26	  37
  26	  39
  26	  42
  26	  47
  26	  49
  26	  58
  26	  59
  26	  61
  26	  67
  26	  69
  26	  71
  26	  72
  26	  76
  26	  78
  26	  82
  26	  88
  26	  89
  26	  94
  26	  96
  26	  97
  26	  98
  26	 101
  26	 103
  26	 104
  26	 105
  26	 108
  26	 111
  26	 112
  26	 113
  26	 115
  26	 116
  26	 118
  27	  29
  27	  30
  27	  35
  27	  36
  27	  37
  27	  39
  27	  43
  27	  44
  27	  46
  27	  47
  27	  53
  27	  54
  27	  55
  27	  57
  27	  59
  27	  60
  27	  62
  27	  66
  27	  73
  27	  75
  27	  80
  27	  82
  27	  84
  27	  86
  27	  87
  27	  89
  27	  93
  27	  99
  27	 100
  27	 110
  27	 113
  27	 117
  27	 118
  28	  29
  28	  30
  28	  35
  28	  38
  28	  44
  28	  46
  28	  48
  28	  50
  28	  51
  28	  54
  28	  58
  28	  61
  28	  62
  28	  63
  28	  64
  28	  68
  28	  69
  28	  73
  28	  75
  28	  78
  28	  80
  28	  81
  28	  82
  28	  83
  28	  84
  28	  85
  28	  87
  28	  88
  28	  89
  28	  90
  28	  91
  28	  94
  28	  95
  28	  99
  28	 100
  28	 103
  28	 104
  28	 108
  28	 109
  28	 110
  28	 111
  28	 112
  28	 113
  28	 115
  28	 116
  29	  31
  29	  32
  29	  33
  29	  35
  29	  39
  29	  40
  29	  46
  29	  48
  29	  51
  29	  52
  29	  54
  29	  58
  29	  59
  29	  61
  29	  69
  29	  70
  29	  72
  29	  74
  29	  76
  29	  77
  29	  78
  29	  79
  29	  82
  29	  83
  29	  84
  29	  86
  29	  87
  29	  89
  29	  91
  29	  92
  29	  97
  29	  99
  29	 102
  29	 105
  29	 107
  29	 108
  29	 109
  29	 110
  29	 112
  29	 114
  29	 115
  29	 117
  29	 118
  30	  33
  30	  35
  30	  36
  30	  37
  30	  38
  30	  41
  30	  43
  30	  44
  30	  45
  30	  47
  30	  48
  30	  49
  30	  52
  30	  53
  30	  55
  30	  56
  30	  58
  30	  60
  30	  63
  30	  64
  30	  65
  30	  66
  30	  67
  30	  68
  30	  69
  30	  70
  30	  71
  30	  73
  30	  80
  30	  82
  30	  83
  30	  84
  30	  87
  30	  89
  30	  90
  30	  92
  30	  93
  30	  95
  30	  96
  30	  98
  30	  99
  30	 100
  30	 102
  30	 103
  30	 107
  30	 108
  30	 112
  30	 114
  31	  34
  31	  38
  31	  39
  31	  42
  31	  43
  31	  45
  31	  50
  31	  53
  31	  55
  31	  58
  31	  61
  31	  64
  31	  65
  31	  67
  31	  70
  31	  72
  31	  76
  31	  77
  31	  79
  31	  85
  31	  88
  31	  89
  31	  90
  31	  92
  31	  96
  31	 100
  31	 101
  31	 104
  31	 106
  31	 108
  31	 112
  31	 119
  32	  33
  32	  34
  32	  38
  32	  39
  32	  41
  32	  45
  32	  47
  32	  49
  32	  50
  32	  53
  32	  55
  32	  57
  32	  58
  32	  59
  32	  61
  32	  74
  32	  75
  32	  78
  32	  81
  32	  82
  32	  83
  32	  87
  32	  92
  32	  94
  32	 100
  32	 101
  32	 106
  32	 107
  32	 108
  32	 114
  32	 117
  33	  35
  33	  36
  33	  37
  33	  40
  33	  41
  33	  43
  33	  44
  33	  47
  33	  48
  33	  49
  33	  53
  33	  54
  33	  59
  33	  61
  33	  65
  33	  68
  33	  70
  33	  71
  33	  72
  33	  75
  33	  76
  33	  79
  33	  80
  33	  82
  33	  84
  33	  87
  33	  93
  33	 101
  33	 104
  33	 111
  33	 114
  33	 115
  33	 116
  33	 117
  34	  38
  34	  40
  34	  41
  34	  42
  34	  43
  34	  52
  34	  55
  34	  56
  34	  63
  34	  65
  34	  66
  34	  72
  34	  75
  34	  77
  34	  79
  34	  84
  34	  88
  34	  89
  34	  93
  34	  94
  34	  97
  34	  98
  34	  99
  34	 101
  34	 102
  34	 104
  34	 105
  34	 107
  34	 112
  34	 115
  34	 117
  34	 118
  34	 119
  35	  36
  35	  37
  35	  38
  35	  41
  35	  44
  35	  46
  35	  47
  35	  52
  35	  61
  35	  62
  35	  63
  35	  64
  35	  65
  35	  66
  35	  68
  35	  70
  35	  81
  35	  83
  35	  84
  35	  85
  35	  86
  35	  87
  35	  88
  35	  90
  35	  92
  35	  98
  35	  99
  35	 100
  35	 104
  35	 105
  35	 108
  35	 110
  35	 112
  35	 114
  35	 116
  35	 117
  36	  38
  36	  39
  36	  45
  36	  46
  36	  49
  36	  50
  36	  54
  36	  57
  36	  58
  36	  60
  36	  63
  36	  67
  36	  68
  36	  75
  36	  78
  36	  80
  36	  83
  36	  84
  36	  85
  36	  89
  36	  90
  36	  92
  36	  93
  36	  94
  36	  96
  36	  97
  36	  98
  36	 102
  36	 103
  36	 108
  36	 117
  36	 119
  37	  42
  37	  43
  37	  47
  37	  48
  37	  52
  37	  53
  37	  55
  37	  57
  37	  61
  37	  62
  37	  65
  37	  70
  37	  74
  37	  75
  37	  77
  37	  78
  37	  81
  37	  82
  37	  89
  37	  93
  37	 100
  37	 102
  37	 103
  37	 104
  37	 110
  37	 111
  37	 114
  37	 119
  38	  42
  38	  45
  38	  46
  38	  48
  38	  50
  38	  51
  38	  53
  38	  58
  38	  60
  38	  62
  38	  64
  38	  65
  38	  68
  38	  70
  38	  77
  38	  80
  38	  82
  38	  83
  38	  84
  38	  85
  38	  86
  38	  90
  38	  91
  38	  94
  38	  96
  38	  97
  38	  98
  38	 103
  38	 106
  38	 107
  38	 115
  38	 118
  38	 119
  39	  43
  39	  44
  39	  47
  39	  48
  39	  49
  39	  51
  39	  52
  39	  54
  39	  58
  39	  59
  39	  60
  39	  61
  39	  62
  39	  63
  39	  65
  39	  66
  39	  69
  39	  70
  39	  74
  39	  75
  39	  77
  39	  78
  39	  83
  39	  84
  39	  86
  39	  88
  39	  89
  39	  90
  39	  92
  39	  94
  39	 100
  39	 108
  39	 109
  39	 111
  39	 112
  40	  46
  40	  47
  40	  49
  40	  51
  40	  52
  40	  54
  40	  55
  40	  58
  40	  61
  40	  63
  40	  65
  40	  66
  40	  73
  40	  74
  40	  75
  40	  76
  40	  77
  40	  79
  40	  81
  40	  82
  40	  86
  40	  89
  40	  91
  40	  93
  40	  95
  40	 100
  40	 104
  40	 107
  40	 108
  40	 109
  40	 115
  40	 117
  40	 118
  41	  42
  41	  45
  41	  46
  41	  47
  41	  50
  41	  56
  41	  61
  41	  64
  41	  66
  41	  67
  41	  70
  41	  71
  41	  74
  41	  75
  41	  76
  41	  78
  41	  81
  41	  83
  41	  85
  41	  89
  41	  91
  41	  94
  41	  95
  41	  97
  41	  99
  41	 100
  41	 108
  41	 109
  41	 113
  41	 114
  41	 115
  41	 119
  42	  43
  42	  44
  42	  48
  42	  49
  42	  52
  42	  54
  42	  55
  42	  60
  42	  61
  42	  65
  42	  66
  42	  73
  42	  74
  42	  78
  42	  82
  42	  84
  42	  85
  42	  86
  42	  90
  42	  91
  42	  95
  42	  99
  42	 103
  42	 107
  42	 109
  42	 110
  42	 111
  42	 113
  42	 114
  42	 116
  42	 118
  43	  46
  43	  47
  43	  48
  43	  49
  43	  50
  43	  52
  43	  56
  43	  60
  43	  61
  43	  65
  43	  66
  43	  69
  43	  72
  43	  73
  43	  75
  43	  76
  43	  77
  43	  81
  43	  82
  43	  89
  43	  91
  43	 100
  43	 101
  43	 102
  43	 104
  43	 110
  43	 112
  43	 113
  43	 115
  43	 116
  43	 117
  43	 119
  44	  51
  44	  52
  44	  54
  44	  55
  44	  58
  44	  60
  44	  61
  44	  62
  44	  68
  44	  69
  44	  74
  44	  76
  44	  77
  44	  79
  44	  80
  44	  81
  44	  83
  44	  85
  44	  90
  44	  91
  44	  95
  44	  98
  44	 100
  44	 103
  44	 107
  44	 108
  44	 110
  44	 111
  44	 113
  45	  46
  45	  47
  45	  48
  45	  49
  45	  52
  45	  53
  45	  54
  45	  56
  45	  61
  45	  63
  45	  64
  45	  65
  45	  69
  45	  70
  45	  71
  45	  74
  45	  79
  45	  81
  45	  83
  45	  86
  45	  88
  45	  90
  45	  94
  45	  95
  45	  97
  45	  98
  45	  99
  45	 100
  45	 104
  45	 105
  45	 108
  45	 109
  45	 111
  45	 112
  45	 114
  46	  49
  46	  55
  46	  56
  46	  58
  46	  59
  46	  65
  46	  66
  46	  68
  46	  69
  46	  70
  46	  73
  46	  74
  46	  75
  46	  79
  46	  81
  46	  83
  46	  84
  46	  85
  46	  89
  46	  90
  46	 100
  46	 101
  46	 104
  46	 109
  46	 113
  46	 116
  47	  54
  47	  55
  47	  56
  47	  61
  47	  62
  47	  69
  47	  76
  47	  78
  47	  81
  47	  82
  47	  85
  47	  87
  47	  90
  47	  94
  47	  96
  47	  98
  47	 100
  47	 102
  47	 103
  47	 106
  47	 107
  47	 112
  47	 113
  47	 114
  47	 117
  47	 118
  48	  49
  48	  53
  48	  55
  48	  56
  48	  60
  48	  63
  48	  64
  48	  68
  48	  71
  48	  74
  48	  75
  48	  76
  48	  77
  48	  79
  48	  81
  48	  82
  48	  85
  48	  87
  48	  88
  48	  92
  48	  95
  48	  99
  48	 100
  48	 101
  48	 108
  48	 111
  48	 113
  48	 114
  48	 115
  48	 116
  48	 117
  48	 119
  49	  50
  49	  51
  49	  52
  49	  58
  49	  60
  49	  62
  49	  63
  49	  64
  49	  65
  49	  66
  49	  68
  49	  69
  49	  74
  49	  76
  49	  77
  49	  78
  49	  79
  49	  80
  49	  81
  49	  84
  49	  86
  49	  88
  49	  90
  49	  93
  49	  96
  49	  99
  49	 102
  49	 109
  49	 110
  49	 111
  49	 116
  50	  53
  50	  54
  50	  60
  50	  62
  50	  67
  50	  69
  50	  74
  50	  80
  50	  83
  50	  85
  50	  88
  50	  89
  50	  92
  50	  94
  50	  96
  50	 100
  50	 102
  50	 108
  50	 109
  50	 115
  50	 116
  50	 117
  51	  55
  51	  56
  51	  57
  51	  58
  51	  59
  51	  60
  51	  61
  51	  62
  51	  64
  51	  65
  51	  70
  51	  72
  51	  75
  51	  76
  51	  80
  51	  84
  51	  86
  51	  91
  51	  92
  51	  96
  51	  99
  51	 105
  51	 107
  51	 111
  51	 112
  51	 114
  51	 116
  51	 119
  52	  55
  52	  57
  52	  59
  52	  67
  52	  72
  52	  73
  52	  74
  52	  75
  52	  77
  52	  79
  52	  80
  52	  86
  52	  87
  52	  88
  52	  89
  52	  92
  52	  93
  52	  94
  52	  96
  52	  98
  52	 100
  52	 101
  52	 102
  52	 103
  52	 104
  52	 108
  52	 110
  52	 111
  52	 112
  52	 114
  52	 118
  52	 119
  53	  54
  53	  56
  53	  61
  53	  62
  53	  63
  53	  64
  53	  65
  53	  66
  53	  67
  53	  69
  53	  70
  53	  71
  53	  73
  53	  74
  53	  78
  53	  79
  53	  81
  53	  82
  53	  85
  53	  86
  53	  90
  53	  94
  53	  95
  53	  98
  53	 102
  53	 104
  53	 106
  53	 108
  53	 110
  53	 111
  53	 113
  53	 117
  53	 119
  54	  58
  54	  59
  54	  66
  54	  69
  54	  70
  54	  80
  54	  81
  54	  82
  54	  86
  54	  90
  54	  91
  54	  92
  54	  93
  54	  94
  54	  96
  54	  99
  54	 102
  54	 103
  54	 106
  54	 107
  54	 110
  54	 112
  54	 115
  54	 117
  54	 118
  54	 119
  55	  61
  55	  64
  55	  73
  55	  74
  55	  75
  55	  76
  55	  77
  55	  79
  55	  80
  55	  81
  55	  82
  55	  87
  55	  90
  55	  91
  55	  96
  55	  98
  55	  99
  55	 101
  55	 106
  55	 110
  55	 116
  55	 118
  56	  57
  56	  59
  56	  63
  56	  65
  56	  66
  56	  67
  56	  71
  56	  72
  56	  73
  56	  74
  56	  76
  56	  80
  56	  83
  56	  84
  56	  86
  56	  87
  56	  92
  56	  93
  56	  94
  56	  96
  56	  98
  56	  99
  56	 100
  56	 104
  56	 105
  56	 106
  56	 114
  56	 118
  57	  58
  57	  60
  57	  62
  57	  63
  57	  64
  57	  65
  57	  66
  57	  70
  57	  71
  57	  73
  57	  76
  57	  79
  57	  80
  57	  81
  57	  87
  57	  88
  57	  89
  57	  90
  57	  92
  57	  96
  57	  98
  57	  99
  57	 102
  57	 105
  57	 107
  57	 109
  57	 112
  57	 113
  57	 115
  57	 116
  57	 117
  57	 119
  58	  61
  58	  62
  58	  63
  58	  64
  58	  65
  58	  70
  58	  71
  58	  73
  58	  75
  58	  79
  58	  82
  58	  86
  58	  89
  58	  90
  58	  95
  58	  97
  58	  99
  58	 103
  58	 105
  58	 108
  58	 112
  58	 113
  59	  62
  59	  64
  59	  66
  59	  69
  59	  71
  59	  73
  59	  75
  59	  79
  59	  85
  59	  86
  59	  87
  59	  88
  59	  90
  59	  91
  59	  94
  59	  95
  59	  96
  59	  98
  59	  99
  59	 100
  59	 101
  59	 110
  59	 113
  59	 115
  59	 116
  59	 118
  60	  61
  60	  64
  60	  71
  60	  73
  60	  77
  60	  80
  60	  84
  60	  85
  60	  86
  60	  89
  60	  90
  60	  92
  60	  94
  60	  95
  60	 102
  60	 106
  60	 107
  60	 108
  60	 109
  60	 112
  60	 114
  60	 115
  60	 118
  60	 119
  61	  63
  61	  64
  61	  67
  61	  71
  61	  72
  61	  73
  61	  75
  61	  77
  61	  78
  61	  79
  61	  82
  61	  84
  61	  86
  61	  88
  61	  89
  61	  90
  61	  92
  61	  94
  61	  98
  61	 103
  61	 108
  61	 110
  61	 112
  61	 118
  61	 119
  62	  66
  62	  68
  62	  70
  62	  74
  62	  75
  62	  85
  62	  87
  62	  92
  62	  93
  62	  94
  62	  95
  62	  99
  62	 105
  62	 107
  62	 109
  62	 111
  62	 113
  63	  68
  63	  75
  63	  76
  63	  82
  63	  85
  63	  86
  63	  90
  63	  94
  63	  96
  63	  99
  63	 101
  63	 103
  63	 104
  63	 108
  63	 111
  63	 115
  63	 116
  63	 117
  64	  65
  64	  66
  64	  69
  64	  75
  64	  76
  64	  77
  64	  78
  64	  79
  64	  80
  64	  83
  64	  85
  64	  86
  64	  92
  64	  93
  64	  94
  64	  96
  64	  97
  64	  98
  64	 101
  64	 102
  64	 103
  64	 106
  64	 110
  64	 113
  64	 114
  64	 117
  64	 118
  65	  67
  65	  71
  65	  72
  65	  74
  65	  75
  65	  76
  65	  83
  65	  86
  65	  91
  65	  92
  65	  94
  65	  97
  65	  98
  65	 103
  65	 105
  65	 106
  65	 116
  65	 118
  65	 119
  66	  69
  66	  72
  66	  75
  66	  78
  66	  79
  66	  84
  66	  85
  66	  89
  66	 101
  66	 102
  66	 103
  66	 104
  66	 106
  66	 107
  66	 112
  66	 115
  66	 118
  66	 119
  67	  75
  67	  76
  67	  77
  67	  79
  67	  80
  67	  81
  67	  84
  67	  85
  67	  90
  67	  92
  67	  93
  67	  96
  67	  98
  67	  99
  67	 102
  67	 103
  67	 104
  67	 109
  67	 111
  67	 112
  67	 113
  67	 116
  67	 117
  67	 119
  68	  69
  68	  70
  68	  73
  68	  74
  68	  75
  68	  76
  68	  78
  68	  82
  68	  83
  68	  84
  68	  85
  68	  89
  68	  91
  68	  92
  68	  93
  68	  95
  68	 101
  68	 114
  68	 115
  68	 116
  68	 117
  68	 119
  69	  71
  69	  76
  69	  84
  69	  85
  69	  88
  69	  89
  69	  91
  69	  95
  69	 101
  69	 109
  69	 112
  69	 113
  69	 114
  69	 117
  69	 118
  69	 119
  70	  74
  70	  75
  70	  76
  70	  78
  70	  82
  70	  85
  70	  86
  70	  87
  70	  88
  70	  90
  70	  91
  70	  93
  70	  94
  70	  95
  70	  96
  70	  99
  70	 102
  70	 103
  70	 104
  70	 109
  70	 111
  70	 114
  70	 115
  70	 116
  70	 117
  70	 118
  71	  72
  71	  76
  71	  78
  71	  79
  71	  80
  71	  82
  71	  83
  71	  85
  71	  87
  71	  91
  71	  92
  71	  95
  71	  96
  71	  97
  71	 101
  71	 105
  71	 106
  71	 107
  71	 108
  71	 114
  71	 117
  71	 118
  72	  75
  72	  77
  72	  78
  72	  79
  72	  80
  72	  81
  72	  84
  72	  85
  72	  86
  72	  91
  72	  92
  72	  94
  72	  95
  72	  96
  72	  97
  72	  98
  72	  99
  72	 100
  72	 103
  72	 111
  73	  74
  73	  76
  73	  77
  73	  78
  73	  79
  73	  82
  73	  84
  73	  85
  73	  86
  73	  98
  73	  99
  73	 101
  73	 102
  73	 104
  73	 107
  73	 111
  73	 113
  73	 115
  73	 116
  73	 118
  73	 119
  74	  75
  74	  76
  74	  78
  74	  79
  74	  82
  74	  84
  74	  85
  74	  86
  74	  89
  74	  91
  74	  97
  74	  99
  74	 100
  74	 103
  74	 105
  74	 107
  74	 112
  74	 114
  75	  76
  75	  77
  75	  79
  75	  85
  75	  86
  75	  87
  75	  88
  75	  91
  75	  93
  75	  95
  75	  97
  75	  99
  75	 104
  75	 109
  75	 112
  75	 113
  75	 114
  75	 117
  76	  77
  76	  78
  76	  81
  76	  82
  76	  84
  76	  85
  76	  90
  76	  98
  76	  99
  76	 101
  76	 102
  76	 104
  76	 110
  76	 111
  76	 112
  76	 118
  77	  78
  77	  80
  77	  81
  77	  82
  77	  83
  77	  84
  77	  85
  77	  87
  77	  88
  77	  91
  77	  93
  77	  94
  77	  96
  77	  98
  77	  99
  77	 102
  77	 104
  77	 110
  77	 112
  77	 113
  77	 118
  77	 119
  78	  84
  78	  87
  78	  88
  78	  89
  78	  90
  78	  92
  78	  94
  78	  95
  78	  96
  78	  99
  78	 100
  78	 102
  78	 103
  78	 108
  78	 113
  78	 118
  78	 119
  79	  81
  79	  82
  79	  83
  79	  87
  79	  89
  79	  90
  79	  91
  79	  95
  79	  98
  79	 101
  79	 107
  79	 108
  79	 111
  79	 113
  79	 116
  80	  82
  80	  85
  80	  86
  80	  87
  80	  88
  80	  90
  80	  91
  80	  92
  80	  97
  80	 101
  80	 105
  80	 108
  80	 110
  80	 111
  80	 114
  81	  82
  81	  85
  81	  88
  81	  97
  81	  99
  81	 100
  81	 101
  81	 102
  81	 105
  81	 106
  81	 111
  81	 113
  81	 114
  81	 117
  81	 119
  82	  85
  82	  91
  82	  92
  82	  94
  82	  96
  82	 100
  82	 102
  82	 103
  82	 104
  82	 106
  82	 109
  82	 111
  82	 112
  82	 113
  82	 114
  82	 115
  82	 118
  83	  85
  83	  87
  83	  88
  83	  90
  83	  93
  83	  94
  83	  95
  83	  96
  83	  98
  83	 101
  83	 104
  83	 105
  83	 108
  83	 111
  83	 116
  84	  85
  84	  87
  84	  88
  84	  89
  84	  90
  84	  91
  84	  92
  84	  93
  84	  99
  84	 100
  84	 105
  84	 106
  84	 109
  84	 116
  84	 119
  85	 100
  85	 101
  85	 104
  85	 105
  85	 106
  85	 108
  85	 109
  85	 110
  85	 114
  85	 116
  86	  90
  86	  93
  86	  95
  86	  98
  86	  99
  86	 103
  86	 104
  86	 106
  86	 107
  86	 112
  86	 113
  86	 115
  87	  94
  87	  99
  87	 101
  87	 102
  87	 104
  87	 105
  87	 106
  87	 107
  87	 108
  87	 110
  87	 114
  87	 117
  88	  89
  88	  90
  88	  92
  88	  94
  88	  95
  88	  99
  88	 100
  88	 102
  88	 105
  88	 106
  88	 107
  88	 110
  88	 111
  88	 113
  88	 115
  88	 118
  88	 119
  89	  92
  89	  99
  89	 107
  89	 110
  89	 112
  89	 114
  89	 117
  89	 119
  90	  92
  90	  96
  90	  97
  90	  98
  90	 103
  90	 104
  90	 105
  90	 108
  90	 113
  90	 119
  91	  92
  91	  94
  91	  96
  91	  97
  91	 102
  91	 103
  91	 104
  91	 105
  91	 107
  91	 108
  91	 110
  91	 115
  91	 116
  92	  96
  92	  98
  92	 102
  92	 103
  92	 105
  92	 107
  92	 108
  92	 110
  92	 111
  92	 113
  92	 114
  92	 116
  92	 118
  92	 119
  93	  94
  93	  98
  93	  99
  93	 100
  93	 102
  93	 105
  93	 107
  93	 111
  93	 113
  93	 114
  93	 115
  94	  99
  94	 102
  94	 108
  94	 110
  94	 112
  94	 113
  94	 114
  94	 115
  95	  96
  95	  97
  95	  98
  95	 106
  95	 108
  95	 109
  95	 112
  95	 113
  95	 115
  96	 100
  96	 102
  96	 105
  96	 108
  96	 109
  96	 110
  96	 112
  96	 113
  96	 115
  96	 116
  97	  98
  97	  99
  97	 101
  97	 107
  97	 110
  97	 114
  97	 115
  97	 116
  97	 118
  98	 102
  98	 103
  98	 104
  98	 105
  98	 110
  98	 112
  98	 117
  98	 118
  99	 101
  99	 102
  99	 104
  99	 105
  99	 107
  99	 108
  99	 110
  99	 112
  99	 113
 100	 103
 100	 104
 100	 105
 100	 106
 100	 115
 101	 105
 101	 108
 101	 109
 101	 111
 101	 113
 101	 115
 101	 117
 101	 119
 102	 104
 102	 105
 102	 109
 102	 113
 102	 115
 103	 112
 103	 114
 103	 115
 104	 106
 104	 107
 104	 111
 104	 115
 104	 116
 104	 119
 105	 108
 105	 111
 105	 113
 105	 114
 105	 115
 106	 108
 106	 109
 106	 110
 106	 113
 106	 116
 107	 109
 107	 110
 107	 113
 107	 114
 107	 116
 107	 117
 107	 119
 108	 110
 108	 111
 108	 115
 108	 117
 109	 110
 109	 114
 109	 115
 110	 111
 110	 112
 110	 118
 111	 112
 111	 115
 111	 116
 111	 117
 112	 113
 112	 115
 112	 117
 113	 114
 113	 115
 113	 116
 113	 119
 114	 115
 114	 118
 116	 119
 117	 119
;
